************************************************************************
file with basedata            : md361_.bas
initial value random generator: 1052920004
************************************************************************
projects                      :  1
jobs (incl. supersource/sink ):  22
horizon                       :  162
RESOURCES
  - renewable                 :  2   R
  - nonrenewable              :  2   N
  - doubly constrained        :  0   D
************************************************************************
PROJECT INFORMATION:
pronr.  #jobs rel.date duedate tardcost  MPM-Time
    1     20      0       22       17       22
************************************************************************
PRECEDENCE RELATIONS:
jobnr.    #modes  #successors   successors
   1        1          3           2   3   4
   2        3          2           7  17
   3        3          3           7   8  17
   4        3          2           5   9
   5        3          3           6   8  16
   6        3          3          10  15  18
   7        3          2          10  11
   8        3          3          11  12  13
   9        3          2          11  19
  10        3          3          12  13  20
  11        3          2          15  18
  12        3          1          14
  13        3          2          19  21
  14        3          2          19  21
  15        3          1          20
  16        3          1          17
  17        3          1          21
  18        3          1          20
  19        3          1          22
  20        3          1          22
  21        3          1          22
  22        1          0        
************************************************************************
REQUESTS/DURATIONS:
jobnr. mode duration  R 1  R 2  N 1  N 2
------------------------------------------------------------------------
  1      1     0       0    0    0    0
  2      1     4       0    9    3    8
         2     5       0    9    3    6
         3     8       6    0    3    2
  3      1     6       0    7    7    7
         2     6       0    7    9    6
         3     8       0    7    4    4
  4      1     2       6    0    6    6
         2     3       6    0    4    4
         3     7       3    0    1    2
  5      1     1       0    8    7    2
         2     9       0    6    4    2
         3    10       9    0    1    2
  6      1     7       9    0    8    5
         2     8       0    9    7    4
         3     8       8    0    7    5
  7      1     4       7    0    7    7
         2     5       6    0    7    7
         3     6       0    3    6    4
  8      1     2       6    0   10   10
         2    10       5    0    4   10
         3    10       0    3    7   10
  9      1     5       0    5    7    7
         2     7       4    0    7    6
         3     9       3    0    4    4
 10      1     3      10    0   10    2
         2     5       8    0    5    1
         3     7       0    8    3    1
 11      1     2       6    0    5    2
         2     4       4    0    3    2
         3     8       3    0    2    2
 12      1     3       4    0    9    9
         2     4       0    3    9    8
         3    10       0    3    8    6
 13      1     4       2    0   10    8
         2     7       2    0   10    7
         3    10       1    0    9    7
 14      1     2       3    0   10    3
         2     9       0    5   10    3
         3     9       2    0   10    3
 15      1     1       8    0    7    7
         2     4       0    3    7    5
         3     7       6    0    7    5
 16      1     2       0    4    8   10
         2     6       0    2    5    5
         3     7       2    0    4    3
 17      1     1       0    9    7    5
         2     6       4    0    7    5
         3     9       0    8    5    4
 18      1     1       5    0    4    9
         2     3       0    6    4    7
         3     7       3    0    4    4
 19      1     4      10    0   10    7
         2     8       4    0    9    6
         3     9       0    9    8    5
 20      1     1       0    4    9    4
         2     5       0    1    8    2
         3     8       5    0    7    1
 21      1     1       2    0    8    6
         2     5       0    9    6    5
         3     5       0    9    7    2
 22      1     0       0    0    0    0
************************************************************************
RESOURCEAVAILABILITIES:
  R 1  R 2  N 1  N 2
    9   14  129  100
************************************************************************
MAXIMAL LAGS:
from  to  type  delay
    1   22   ES      0
    1    2   ES      0
    2   22   ES      0
    1    3   ES      0
    3   22   ES      0
    1    4   ES      0
    4   22   ES      0
    1    5   ES      0
    5   22   ES      0
    1    6   ES      0
    6   22   ES      0
    1    7   ES      0
    7   22   ES      0
    1    8   ES      0
    8   22   ES      0
    1    9   ES      0
    9   22   ES      0
    1   10   ES      0
   10   22   ES      0
    1   11   ES      0
   11   22   ES      0
    1   12   ES      0
   12   22   ES      0
    1   13   ES      0
   13   22   ES      0
    1   14   ES      0
   14   22   ES      0
    1   15   ES      0
   15   22   ES      0
    1   16   ES      0
   16   22   ES      0
    1   17   ES      0
   17   22   ES      0
    1   18   ES      0
   18   22   ES      0
    1   19   ES      0
   19   22   ES      0
    1   20   ES      0
   20   22   ES      0
    1   21   ES      0
   21   22   ES      0
    1   22   ES      0
    2    7   SS     -5
    2    7   SE     11
    2    7   ES     10
    2    7   EE     -3
    2   17   SS      7
    2   17   SE     -4
    2   17   ES     12
    2   17   EE    -10
    3    7   SS      7
    3    7   SE     10
    3    7   ES      3
    3    7   EE     -9
    3    8   SS     -2
    3    8   SE     10
    3    8   ES      3
    3    8   EE     12
    3   17   SS     -2
    3   17   SE     -1
    3   17   ES      3
    3   17   EE     -9
    4    5   SS      0
    4    5   SE      1
    4    5   ES     -5
    4    5   EE     -7
    4    9   SS      4
    4    9   SE      8
    4    9   ES      8
    4    9   EE     -8
    5    6   SS     -4
    5    6   SE      1
    5    6   ES     -5
    5    6   EE    -12
    5    8   SS      1
    5    8   SE     -9
    5    8   ES     11
    5    8   EE      1
    5   16   SS     -8
    5   16   SE    -10
    5   16   ES      9
    5   16   EE      9
    6   10   SS      5
    6   10   SE      9
    6   10   ES     -1
    6   10   EE     10
    6   15   SS      1
    6   15   SE     -5
    6   15   ES     -2
    6   15   EE     -8
    6   18   SS    -12
    6   18   SE     12
    6   18   ES    -12
    6   18   EE      2
    7   10   SS      1
    7   10   SE    -10
    7   10   ES     -2
    7   10   EE    -11
    7   11   SS     -3
    7   11   SE     -8
    7   11   ES    -11
    7   11   EE     -2
    8   11   SS      7
    8   11   SE      5
    8   11   ES      9
    8   11   EE      0
    8   12   SS      4
    8   12   SE     -1
    8   12   ES      9
    8   12   EE      8
    8   13   SS      1
    8   13   SE      7
    8   13   ES      2
    8   13   EE      2
    9   11   SS    -10
    9   11   SE     -3
    9   11   ES     -6
    9   11   EE      9
    9   19   SS     -6
    9   19   SE     10
    9   19   ES      1
    9   19   EE    -12
   10   12   SS      4
   10   12   SE    -11
   10   12   ES     11
   10   12   EE     12
   10   13   SS      6
   10   13   SE    -11
   10   13   ES     -9
   10   13   EE    -11
   10   20   SS    -10
   10   20   SE     -3
   10   20   ES     12
   10   20   EE     12
   11   15   SS      1
   11   15   SE     11
   11   15   ES     -9
   11   15   EE    -11
   11   18   SS     11
   11   18   SE     -6
   11   18   ES      7
   11   18   EE     -8
   12   14   SS      3
   12   14   SE      4
   12   14   ES      4
   12   14   EE      4
   13   19   SS      5
   13   19   SE     -9
   13   19   ES      5
   13   19   EE      7
   13   21   SS     -6
   13   21   SE    -11
   13   21   ES     -4
   13   21   EE      0
   14   19   SS      9
   14   19   SE     -9
   19   14   SE      0
   14   19   ES      0
   14   19   EE     -5
   14   21   SS      5
   14   21   SE      4
   14   21   ES     -9
   14   21   EE      1
   15   20   SS      4
   15   20   SE      3
   15   20   ES     10
   15   20   EE      5
   16   17   SS     11
   16   17   SE     -1
   16   17   ES    -10
   16   17   EE      4
   17   21   SS      9
   17   21   SE     -1
   17   21   ES      1
   17   21   EE      7
   18   20   SS    -11
   18   20   SE     -1
   18   20   ES      8
   18   20   EE    -11
************************************************************************
